Welcome to the CBC MILP Solver 
Version: Trunk
Build Date: Apr 16 2020 

Starting solution of the Linear programming relaxation problem using Primal Simplex

Using Python-MIP package version 1.8.1
Machines:  4 Jobs:  4
Order: 
Job  0 : machine 0 ( 10 ) machine 3 ( 1 ) machine 2 ( 6 ) machine 1 ( 7 ) 
Job  1 : machine 0 ( 1 ) machine 3 ( 7 ) machine 1 ( 5 ) machine 2 ( 8 ) 
Job  2 : machine 3 ( 9 ) machine 2 ( 3 ) machine 1 ( 7 ) machine 0 ( 1 ) 
Job  3 : machine 1 ( 7 ) machine 3 ( 3 ) machine 0 ( 9 ) machine 2 ( 10 ) 
K:  44
Job  0 , e: machine  0 ( 0 ) machine  1 ( 17 ) machine  2 ( 11 ) machine  3 ( 10 ) 
Job  1 , e: machine  0 ( 0 ) machine  1 ( 8 ) machine  2 ( 13 ) machine  3 ( 1 ) 
Job  2 , e: machine  0 ( 19 ) machine  1 ( 12 ) machine  2 ( 9 ) machine  3 ( 0 ) 
Job  3 , e: machine  0 ( 10 ) machine  1 ( 0 ) machine  2 ( 19 ) machine  3 ( 7 ) 
Job  0 , f: machine  0 ( 14 ) machine  1 ( 0 ) machine  2 ( 7 ) machine  3 ( 13 ) 
Job  1 , f: machine  0 ( 20 ) machine  1 ( 8 ) machine  2 ( 0 ) machine  3 ( 13 ) 
Job  2 , f: machine  0 ( 0 ) machine  1 ( 1 ) machine  2 ( 8 ) machine  3 ( 11 ) 
Job  3 , f: machine  0 ( 10 ) machine  1 ( 22 ) machine  2 ( 0 ) machine  3 ( 19 ) 
EST and LST:
Job: 0 Machine: 0 EST: 0 LST: 20
Job: 0 Machine: 1 EST: 17 LST: 37
Job: 0 Machine: 2 EST: 11 LST: 31
Job: 0 Machine: 3 EST: 10 LST: 30
Job: 1 Machine: 0 EST: 0 LST: 23
Job: 1 Machine: 1 EST: 8 LST: 31
Job: 1 Machine: 2 EST: 13 LST: 36
Job: 1 Machine: 3 EST: 1 LST: 24
Job: 2 Machine: 0 EST: 19 LST: 43
Job: 2 Machine: 1 EST: 12 LST: 36
Job: 2 Machine: 2 EST: 9 LST: 33
Job: 2 Machine: 3 EST: 0 LST: 24
Job: 3 Machine: 0 EST: 10 LST: 25
Job: 3 Machine: 1 EST: 0 LST: 15
Job: 3 Machine: 2 EST: 19 LST: 34
Job: 3 Machine: 3 EST: 7 LST: 22
Order:
Job: 0 Machine: 0 = 0 
Job: 0 Machine: 1 = 3 
Job: 0 Machine: 2 = 2 
Job: 0 Machine: 3 = 1 
Job: 1 Machine: 0 = 0 
Job: 1 Machine: 1 = 2 
Job: 1 Machine: 2 = 3 
Job: 1 Machine: 3 = 1 
Job: 2 Machine: 0 = 3 
Job: 2 Machine: 1 = 2 
Job: 2 Machine: 2 = 1 
Job: 2 Machine: 3 = 0 
Job: 3 Machine: 0 = 2 
Job: 3 Machine: 1 = 0 
Job: 3 Machine: 2 = 3 
Job: 3 Machine: 3 = 1 
Distances:
Job 0, Machine 0 -> Machine 3: distance 10
Job 0, Machine 0 -> Machine 2: distance 11
Job 0, Machine 0 -> Machine 1: distance 17
Job 0, Machine 3 -> Machine 2: distance 1
Job 0, Machine 3 -> Machine 1: distance 7
Job 0, Machine 2 -> Machine 1: distance 6
Job 1, Machine 0 -> Machine 3: distance 1
Job 1, Machine 0 -> Machine 1: distance 8
Job 1, Machine 0 -> Machine 2: distance 13
Job 1, Machine 3 -> Machine 1: distance 7
Job 1, Machine 3 -> Machine 2: distance 12
Job 1, Machine 1 -> Machine 2: distance 5
Job 2, Machine 3 -> Machine 2: distance 9
Job 2, Machine 3 -> Machine 1: distance 12
Job 2, Machine 3 -> Machine 0: distance 19
Job 2, Machine 2 -> Machine 1: distance 3
Job 2, Machine 2 -> Machine 0: distance 10
Job 2, Machine 1 -> Machine 0: distance 7
Job 3, Machine 1 -> Machine 3: distance 7
Job 3, Machine 1 -> Machine 0: distance 10
Job 3, Machine 1 -> Machine 2: distance 19
Job 3, Machine 3 -> Machine 0: distance 3
Job 3, Machine 3 -> Machine 2: distance 12
Job 3, Machine 0 -> Machine 2: distance 9
McCormic linearization
19.0 13.0 7
14.0 13.0 7
19.0 19.0 10
10.0 7.0 7
7.0 1.0 9
[(0, 1), (1, 2), (0, 0), (2, 1), (1, 0)]
obj:  0.6000000000000001
solutions:  1
+ x(0,0) + 0.1x(1,0) 
C:  28.999999999999996
x(0,0) = 0.20	 x(0,1) = 19.00	 x(0,2) = 13.00	 x(0,3) = 10.20	 
x(1,0) = 8.00	 x(1,1) = 16.00	 x(1,2) = 21.00	 x(1,3) = 9.00	 
x(2,0) = 20.20	 x(2,1) = 13.20	 x(2,2) = 10.20	 x(2,3) = 1.20	 
x(3,0) = 10.00	 x(3,1) = 0.00	 x(3,2) = 19.00	 x(3,3) = 7.00	 
y(0,1,0) = 0.37	 y(1,0,0) = 0.63	 
y(0,2,0) = 0.48	 y(2,0,0) = 0.52	 
y(0,3,0) = 0.99	 y(3,0,0) = 0.01	 
y(1,2,0) = 0.30	 y(2,1,0) = 0.70	 
y(1,3,0) = 0.96	 y(3,1,0) = 0.04	 
y(2,3,0) = 0.00	 y(3,2,0) = 1.00	 
y(0,1,1) = 0.48	 y(1,0,1) = 0.52	 
y(0,2,1) = 0.05	 y(2,0,1) = 0.95	 
y(0,3,1) = 0.00	 y(3,0,1) = 1.00	 
y(1,2,1) = 0.12	 y(2,1,1) = 0.88	 
y(1,3,1) = 0.38	 y(3,1,1) = 0.62	 
y(2,3,1) = 0.00	 y(3,2,1) = 1.00	 
y(0,1,2) = 0.48	 y(1,0,2) = 0.52	 
y(0,2,2) = 0.44	 y(2,0,2) = 0.56	 
y(0,3,2) = 1.00	 y(3,0,2) = 0.00	 
y(1,2,2) = 0.00	 y(2,1,2) = 1.00	 
y(1,3,2) = 0.26	 y(3,1,2) = 0.74	 
y(2,3,2) = 0.74	 y(3,2,2) = 0.26	 
y(0,1,3) = 0.28	 y(1,0,3) = 0.72	 
y(0,2,3) = 0.00	 y(2,0,3) = 1.00	 
y(0,3,3) = 0.01	 y(3,0,3) = 0.99	 
y(1,2,3) = 0.04	 y(2,1,3) = 0.96	 
y(1,3,3) = 0.04	 y(3,1,3) = 0.96	 
y(2,3,3) = 0.35	 y(3,2,3) = 0.65	 
19.0 15.999999999999996 5
19.0 13.200000000000001 7
15.999999999999996 13.200000000000001 7
12.999999999999998 10.199999999999998 3
21.0 18.999999999999996 10
10.200000000000001 8.999999999999996 7
8.999999999999996 1.1999999999999988 9
obj:  0.9174311926605504
solutions:  1
+ 0.09174311926605494x(0,0) + 0.08256880733944957x(3,0) + 0.009174311926605479x(1,0) 
[(0, 1), (0, 0), (3, 0), (1, 0), (1, 1)]
cliques:  1 mip: 72
C:  29.69971671388065
x(0,0) = 5.70	 x(0,1) = 22.70	 x(0,2) = 16.70	 x(0,3) = 15.70	 
x(1,0) = -0.00	 x(1,1) = 8.00	 x(1,2) = 13.00	 x(1,3) = 1.00	 
x(2,0) = 22.70	 x(2,1) = 15.70	 x(2,2) = 12.70	 x(2,3) = 3.70	 
x(3,0) = 10.09	 x(3,1) = 0.00	 x(3,2) = 19.09	 x(3,3) = 7.08	 
y(0,1,0) = 0.00	 y(1,0,0) = 1.00	 
y(0,2,0) = 0.70	 y(2,0,0) = 0.30	 
y(0,3,0) = 0.39	 y(3,0,0) = 0.61	 
y(1,2,0) = 0.54	 y(2,1,0) = 0.46	 
y(1,3,0) = 0.62	 y(3,1,0) = 0.38	 
y(2,3,0) = 0.00	 y(3,2,0) = 1.00	 
y(0,1,1) = 0.13	 y(1,0,1) = 0.87	 
y(0,2,1) = 0.00	 y(2,0,1) = 1.00	 
y(0,3,1) = 0.00	 y(3,0,1) = 1.00	 
y(1,2,1) = 0.42	 y(2,1,1) = 0.58	 
y(1,3,1) = 0.04	 y(3,1,1) = 0.96	 
y(2,3,1) = 0.00	 y(3,2,1) = 1.00	 
y(0,1,2) = 0.13	 y(1,0,2) = 0.87	 
y(0,2,2) = 0.14	 y(2,0,2) = 0.86	 
y(0,3,2) = 0.71	 y(3,0,2) = 0.29	 
y(1,2,2) = 0.12	 y(2,1,2) = 0.88	 
y(1,3,2) = 0.92	 y(3,1,2) = 0.08	 
y(2,3,2) = 0.85	 y(3,2,2) = 0.15	 
y(0,1,3) = 0.00	 y(1,0,3) = 1.00	 
y(0,2,3) = 0.14	 y(2,0,3) = 0.86	 
y(0,3,3) = 0.26	 y(3,0,3) = 0.74	 
y(1,2,3) = 0.37	 y(2,1,3) = 0.63	 
y(1,3,3) = 0.38	 y(3,1,3) = 0.62	 
y(2,3,3) = 0.26	 y(3,2,3) = 0.74	 
16.69971671388065 12.999999999997991 8
12.999999999997991 12.699716713880653 3
obj:  0.8314601551915067
solutions:  1
+ 0.013586956521739127x(1,2) + 0.027173913043478267x(3,2) + 0.008152173913043473x(0,2) 
[(1, 2), (3, 2), (0, 0), (3, 0), (0, 2)]
cliques:  1 mip: 121
C:  33.026845637583904
x(0,0) = 6.09	 x(0,1) = 26.03	 x(0,2) = 20.03	 x(0,3) = 17.13	 
x(1,0) = 5.09	 x(1,1) = 15.48	 x(1,2) = 23.58	 x(1,3) = 8.48	 
x(2,0) = 28.77	 x(2,1) = 21.77	 x(2,2) = 15.91	 x(2,3) = 6.91	 
x(3,0) = 10.00	 x(3,1) = 0.00	 x(3,2) = 19.00	 x(3,3) = 7.00	 
y(0,1,0) = 0.00	 y(1,0,0) = 1.00	 
y(0,2,0) = 0.62	 y(2,0,0) = 0.38	 
y(0,3,0) = 0.70	 y(3,0,0) = 0.30	 
y(1,2,0) = 0.74	 y(2,1,0) = 0.26	 
y(1,3,0) = 0.84	 y(3,1,0) = 0.16	 
y(2,3,0) = 0.00	 y(3,2,0) = 1.00	 
y(0,1,1) = 0.10	 y(1,0,1) = 0.90	 
y(0,2,1) = 0.11	 y(2,0,1) = 0.89	 
y(0,3,1) = 0.00	 y(3,0,1) = 1.00	 
y(1,2,1) = 0.58	 y(2,1,1) = 0.42	 
y(1,3,1) = 0.43	 y(3,1,1) = 0.57	 
y(2,3,1) = 0.00	 y(3,2,1) = 1.00	 
y(0,1,2) = 0.67	 y(1,0,2) = 0.33	 
y(0,2,2) = 0.03	 y(2,0,2) = 0.97	 
y(0,3,2) = 0.61	 y(3,0,2) = 0.39	 
y(1,2,2) = 0.19	 y(2,1,2) = 0.81	 
y(1,3,2) = 0.50	 y(3,1,2) = 0.50	 
y(2,3,2) = 1.00	 y(3,2,2) = 0.00	 
y(0,1,3) = 0.00	 y(1,0,3) = 1.00	 
y(0,2,3) = 0.30	 y(2,0,3) = 0.70	 
y(0,3,3) = 0.36	 y(3,0,3) = 0.64	 
y(1,2,3) = 0.23	 y(2,1,3) = 0.77	 
y(1,3,3) = 0.06	 y(3,1,3) = 0.94	 
y(2,3,3) = 0.12	 y(3,2,3) = 0.88	 
26.026845637583904 21.771097456115022 7
23.583892617449674 19.0 10
8.476510067114114 6.91028403401695 9
obj:  1.0
erro
[(0, 1), (0, 0), (3, 0), (2, 1), (0, 2)]
cliques:  0 mip: 130
C:  34.0
x(0,0) = 1.00	 x(0,1) = 27.00	 x(0,2) = 17.83	 x(0,3) = 15.03	 
x(1,0) = 0.00	 x(1,1) = 14.70	 x(1,2) = 19.70	 x(1,3) = 7.70	 
x(2,0) = 23.70	 x(2,1) = 16.70	 x(2,2) = 12.89	 x(2,3) = 3.89	 
x(3,0) = 11.00	 x(3,1) = 0.00	 x(3,2) = 22.26	 x(3,3) = 7.00	 
y(0,1,0) = 0.00	 y(1,0,0) = 1.00	 
y(0,2,0) = 0.79	 y(2,0,0) = 0.21	 
y(0,3,0) = 1.00	 y(3,0,0) = 0.00	 
y(1,2,0) = 0.63	 y(2,1,0) = 0.37	 
y(1,3,0) = 0.59	 y(3,1,0) = 0.41	 
y(2,3,0) = 0.00	 y(3,2,0) = 1.00	 
y(0,1,1) = 0.02	 y(1,0,1) = 0.98	 
y(0,2,1) = 0.00	 y(2,0,1) = 1.00	 
y(0,3,1) = 0.00	 y(3,0,1) = 1.00	 
y(1,2,1) = 0.40	 y(2,1,1) = 0.60	 
y(1,3,1) = 0.12	 y(3,1,1) = 0.88	 
y(2,3,1) = 0.00	 y(3,2,1) = 1.00	 
y(0,1,2) = 0.45	 y(1,0,2) = 0.55	 
y(0,2,2) = 0.00	 y(2,0,2) = 1.00	 
y(0,3,2) = 0.83	 y(3,0,2) = 0.17	 
y(1,2,2) = 0.16	 y(2,1,2) = 0.84	 
y(1,3,2) = 0.78	 y(3,1,2) = 0.22	 
y(2,3,2) = 0.55	 y(3,2,2) = 0.45	 
y(0,1,3) = 0.00	 y(1,0,3) = 1.00	 
y(0,2,3) = 0.10	 y(2,0,3) = 0.90	 
y(0,3,3) = 0.32	 y(3,0,3) = 0.68	 
y(1,2,3) = 0.18	 y(2,1,3) = 0.82	 
y(1,3,3) = 0.10	 y(3,1,3) = 0.90	 
y(2,3,3) = 0.29	 y(3,2,3) = 0.71	 
7.695652173913038 3.8879948933907102 9
obj:  1.0999999999999999
erro
[(0, 0), (3, 0), (2, 1), (1, 1), (0, 2)]
cliques:  0 mip: 90
C:  34.0
x(0,0) = 1.00	 x(0,1) = 25.22	 x(0,2) = 19.22	 x(0,3) = 18.22	 
x(1,0) = 0.00	 x(1,1) = 9.74	 x(1,2) = 15.16	 x(1,3) = 2.65	 
x(2,0) = 22.71	 x(2,1) = 15.71	 x(2,2) = 12.71	 x(2,3) = 3.71	 
x(3,0) = 12.65	 x(3,1) = 0.92	 x(3,2) = 23.45	 x(3,3) = 9.65	 
y(0,1,0) = 0.00	 y(1,0,0) = 1.00	 
y(0,2,0) = 0.70	 y(2,0,0) = 0.30	 
y(0,3,0) = 1.00	 y(3,0,0) = -0.00	 
y(1,2,0) = 0.76	 y(2,1,0) = 0.24	 
y(1,3,0) = 1.00	 y(3,1,0) = 0.00	 
y(2,3,0) = 0.00	 y(3,2,0) = 1.00	 
y(0,1,1) = 0.00	 y(1,0,1) = 1.00	 
y(0,2,1) = 0.15	 y(2,0,1) = 0.85	 
y(0,3,1) = 0.00	 y(3,0,1) = 1.00	 
y(1,2,1) = 0.61	 y(2,1,1) = 0.39	 
y(1,3,1) = 0.08	 y(3,1,1) = 0.92	 
y(2,3,1) = 0.00	 y(3,2,1) = 1.00	 
y(0,1,2) = 0.32	 y(1,0,2) = 0.68	 
y(0,2,2) = 0.01	 y(2,0,2) = 0.99	 
y(0,3,2) = 0.82	 y(3,0,2) = 0.18	 
y(1,2,2) = 0.02	 y(2,1,2) = 0.98	 
y(1,3,2) = 1.00	 y(3,1,2) = 0.00	 
y(2,3,2) = 0.67	 y(3,2,2) = 0.33	 
y(0,1,3) = 0.00	 y(1,0,3) = 1.00	 
y(0,2,3) = 0.03	 y(2,0,3) = 0.97	 
y(0,3,3) = 0.34	 y(3,0,3) = 0.66	 
y(1,2,3) = 0.51	 y(2,1,3) = 0.49	 
y(1,3,3) = 1.00	 y(3,1,3) = 0.00	 
y(2,3,3) = 0.59	 y(3,2,3) = 0.41	 
19.2239702851642 15.157908165638899 8
15.157908165638899 12.711096949009582 3
obj:  0.9671116546007755
solutions:  1
+ 0.022759601706970153x(1,2) + 0.0177809388335704x(3,2) + 0.010668563300142247x(0,2) 
[(1, 2), (3, 2), (1, 3), (2, 2), (0, 2)]
cliques:  1 mip: 117
C:  34.00000000000001
x(0,0) = 1.00	 x(0,1) = 26.01	 x(0,2) = 20.01	 x(0,3) = 19.01	 
x(1,0) = 0.00	 x(1,1) = 9.95	 x(1,2) = 15.81	 x(1,3) = 2.95	 
x(2,0) = 26.01	 x(2,1) = 19.01	 x(2,2) = 16.01	 x(2,3) = 7.01	 
x(3,0) = 12.95	 x(3,1) = 1.92	 x(3,2) = 24.00	 x(3,3) = 9.95	 
y(0,1,0) = 0.00	 y(1,0,0) = 1.00	 
y(0,2,0) = 0.83	 y(2,0,0) = 0.17	 
y(0,3,0) = 1.00	 y(3,0,0) = 0.00	 
y(1,2,0) = 0.89	 y(2,1,0) = 0.11	 
y(1,3,0) = 1.00	 y(3,1,0) = 0.00	 
y(2,3,0) = 0.00	 y(3,2,0) = 1.00	 
y(0,1,1) = 0.03	 y(1,0,1) = 0.97	 
y(0,2,1) = 0.00	 y(2,0,1) = 1.00	 
y(0,3,1) = 0.00	 y(3,0,1) = 1.00	 
y(1,2,1) = 0.83	 y(2,1,1) = 0.17	 
y(1,3,1) = 0.04	 y(3,1,1) = 0.96	 
y(2,3,1) = 0.00	 y(3,2,1) = 1.00	 
y(0,1,2) = 0.40	 y(1,0,2) = 0.60	 
y(0,2,2) = 0.00	 y(2,0,2) = 1.00	 
y(0,3,2) = 0.81	 y(3,0,2) = 0.19	 
y(1,2,2) = 0.14	 y(2,1,2) = 0.86	 
y(1,3,2) = 1.00	 y(3,1,2) = 0.00	 
y(2,3,2) = 0.51	 y(3,2,2) = 0.49	 
y(0,1,3) = 0.00	 y(1,0,3) = 1.00	 
y(0,2,3) = 0.05	 y(2,0,3) = 0.95	 
y(0,3,3) = 0.39	 y(3,0,3) = 0.61	 
y(1,2,3) = 0.78	 y(2,1,3) = 0.22	 
y(1,3,3) = 1.00	 y(3,1,3) = 0.00	 
y(2,3,3) = 0.65	 y(3,2,3) = 0.35	 
26.012927486604003 19.012927486604006 7
20.012927486604006 15.806440240654362 8
obj:  1.0300841947366413
erro
[(0, 1), (1, 2), (3, 2), (2, 1), (0, 2)]
cliques:  0 mip: 88
C:  34.00000000000001
x(0,0) = 1.00	 x(0,1) = 27.00	 x(0,2) = 19.60	 x(0,3) = 16.75	 
x(1,0) = 0.00	 x(1,1) = 9.75	 x(1,2) = 16.00	 x(1,3) = 2.75	 
x(2,0) = 27.18	 x(2,1) = 20.18	 x(2,2) = 14.32	 x(2,3) = 4.93	 
x(3,0) = 12.75	 x(3,1) = 0.92	 x(3,2) = 24.00	 x(3,3) = 9.75	 
y(0,1,0) = 0.00	 y(1,0,0) = 1.00	 
y(0,2,0) = 0.72	 y(2,0,0) = 0.28	 
y(0,3,0) = 1.00	 y(3,0,0) = 0.00	 
y(1,2,0) = 0.94	 y(2,1,0) = 0.06	 
y(1,3,0) = 1.00	 y(3,1,0) = 0.00	 
y(2,3,0) = 0.00	 y(3,2,0) = 1.00	 
y(0,1,1) = -0.00	 y(1,0,1) = 1.00	 
y(0,2,1) = 0.01	 y(2,0,1) = 0.99	 
y(0,3,1) = 0.00	 y(3,0,1) = 1.00	 
y(1,2,1) = 0.90	 y(2,1,1) = 0.10	 
y(1,3,1) = 0.08	 y(3,1,1) = 0.92	 
y(2,3,1) = 0.00	 y(3,2,1) = 1.00	 
y(0,1,2) = 0.40	 y(1,0,2) = 0.60	 
y(0,2,2) = 0.06	 y(2,0,2) = 0.94	 
y(0,3,2) = 0.85	 y(3,0,2) = 0.15	 
y(1,2,2) = 0.06	 y(2,1,2) = 0.94	 
y(1,3,2) = 1.00	 y(3,1,2) = 0.00	 
y(2,3,2) = 0.56	 y(3,2,2) = 0.44	 
y(0,1,3) = 0.00	 y(1,0,3) = 1.00	 
y(0,2,3) = 0.13	 y(2,0,3) = 0.87	 
y(0,3,3) = 0.20	 y(3,0,3) = 0.80	 
y(1,2,3) = 0.60	 y(2,1,3) = 0.40	 
y(1,3,3) = 1.00	 y(3,1,3) = 0.00	 
y(2,3,3) = 0.84	 y(3,2,3) = 0.16	 
27.000000000000014 20.180223098954055 7
19.59999999999986 16.000000000000096 8
16.000000000000096 14.324708052964297 3
obj:  1.029347826086956
erro
[(0, 1), (1, 2), (3, 2), (2, 1), (0, 2)]
cliques:  0 mip: 108
C:  34.043324775353014
x(0,0) = 1.00	 x(0,1) = 27.04	 x(0,2) = 21.04	 x(0,3) = 20.04	 
x(1,0) = 0.00	 x(1,1) = 10.78	 x(1,2) = 15.78	 x(1,3) = 1.14	 
x(2,0) = 26.85	 x(2,1) = 19.85	 x(2,2) = 14.35	 x(2,3) = 5.35	 
x(3,0) = 13.22	 x(3,1) = 1.54	 x(3,2) = 23.42	 x(3,3) = 10.22	 
y(0,1,0) = 0.00	 y(1,0,0) = 1.00	 
y(0,2,0) = 0.61	 y(2,0,0) = 0.39	 
y(0,3,0) = 1.00	 y(3,0,0) = 0.00	 
y(1,2,0) = 0.98	 y(2,1,0) = 0.02	 
y(1,3,0) = 1.00	 y(3,1,0) = 0.00	 
y(2,3,0) = 0.00	 y(3,2,0) = 1.00	 
y(0,1,1) = 0.00	 y(1,0,1) = 1.00	 
y(0,2,1) = 0.01	 y(2,0,1) = 0.99	 
y(0,3,1) = 0.00	 y(3,0,1) = 1.00	 
y(1,2,1) = 0.82	 y(2,1,1) = 0.18	 
y(1,3,1) = 0.09	 y(3,1,1) = 0.91	 
y(2,3,1) = 0.00	 y(3,2,1) = 1.00	 
y(0,1,2) = 0.30	 y(1,0,2) = 0.70	 
y(0,2,2) = 0.00	 y(2,0,2) = 1.00	 
y(0,3,2) = 0.37	 y(3,0,2) = 0.63	 
y(1,2,2) = 0.07	 y(2,1,2) = 0.93	 
y(1,3,2) = 0.99	 y(3,1,2) = 0.01	 
y(2,3,2) = 0.54	 y(3,2,2) = 0.46	 
y(0,1,3) = 0.00	 y(1,0,3) = 1.00	 
y(0,2,3) = 0.11	 y(2,0,3) = 0.89	 
y(0,3,3) = 0.53	 y(3,0,3) = 0.47	 
y(1,2,3) = 0.75	 y(2,1,3) = 0.25	 
y(1,3,3) = 1.00	 y(3,1,3) = 0.00	 
y(2,3,3) = 0.84	 y(3,2,3) = 0.16	 
21.043324775353046 15.778528477805526 8
15.778528477805526 14.345616470031523 3
obj:  0.9976087395732037
solutions:  1
+ 0.01493039964077233x(1,2) + 0.02346205657835654x(3,2) + 0.010103277952402331x(0,2) 
[(1, 2), (3, 2), (1, 3), (2, 2), (0, 2)]
cliques:  1 mip: 125
C:  35.0
x(0,0) = 1.00	 x(0,1) = 27.78	 x(0,2) = 20.78	 x(0,3) = 18.67	 
x(1,0) = 0.00	 x(1,1) = 9.12	 x(1,2) = 20.85	 x(1,3) = 2.12	 
x(2,0) = 27.78	 x(2,1) = 20.78	 x(2,2) = 17.78	 x(2,3) = 8.78	 
x(3,0) = 14.19	 x(3,1) = 0.71	 x(3,2) = 23.19	 x(3,3) = 7.71	 
y(0,1,0) = 0.00	 y(1,0,0) = 1.00	 
y(0,2,0) = 0.92	 y(2,0,0) = 0.08	 
y(0,3,0) = 1.00	 y(3,0,0) = 0.00	 
y(1,2,0) = 0.95	 y(2,1,0) = 0.05	 
y(1,3,0) = 1.00	 y(3,1,0) = 0.00	 
y(2,3,0) = 0.00	 y(3,2,0) = 1.00	 
y(0,1,1) = 0.00	 y(1,0,1) = 1.00	 
y(0,2,1) = 0.00	 y(2,0,1) = 1.00	 
y(0,3,1) = 0.00	 y(3,0,1) = 1.00	 
y(1,2,1) = 0.92	 y(2,1,1) = 0.08	 
y(1,3,1) = 0.05	 y(3,1,1) = 0.95	 
y(2,3,1) = 0.00	 y(3,2,1) = 1.00	 
y(0,1,2) = 0.35	 y(1,0,2) = 0.65	 
y(0,2,2) = 0.00	 y(2,0,2) = 1.00	 
y(0,3,2) = 0.72	 y(3,0,2) = 0.28	 
y(1,2,2) = 0.00	 y(2,1,2) = 1.00	 
y(1,3,2) = 0.77	 y(3,1,2) = 0.23	 
y(2,3,2) = 0.44	 y(3,2,2) = 0.56	 
y(0,1,3) = 0.00	 y(1,0,3) = 1.00	 
y(0,2,3) = 0.03	 y(2,0,3) = 0.97	 
y(0,3,3) = 0.50	 y(3,0,3) = 0.50	 
y(1,2,3) = 0.90	 y(2,1,3) = 0.10	 
y(1,3,3) = 0.94	 y(3,1,3) = 0.06	 
y(2,3,3) = 0.14	 y(3,2,3) = 0.86	 
0.9999999999999999 0.0 1
8.781751284446592 7.705258186166857 3
obj:  0.9999999999999999
erro
[(1, 2), (3, 2), (0, 0), (1, 0), (0, 2)]
cliques:  0 mip: 93
C:  34.99999999999993
x(0,0) = 1.00	 x(0,1) = 28.00	 x(0,2) = 22.00	 x(0,3) = 11.40	 
x(1,0) = 0.00	 x(1,1) = 12.00	 x(1,2) = 17.00	 x(1,3) = 5.00	 
x(2,0) = 28.02	 x(2,1) = 21.02	 x(2,2) = 18.02	 x(2,3) = 9.02	 
x(3,0) = 16.00	 x(3,1) = 0.22	 x(3,2) = 25.00	 x(3,3) = 7.22	 
y(0,1,0) = 0.00	 y(1,0,0) = 1.00	 
y(0,2,0) = 0.78	 y(2,0,0) = 0.22	 
y(0,3,0) = 1.00	 y(3,0,0) = 0.00	 
y(1,2,0) = 0.84	 y(2,1,0) = 0.16	 
y(1,3,0) = 1.00	 y(3,1,0) = 0.00	 
y(2,3,0) = 0.00	 y(3,2,0) = 1.00	 
y(0,1,1) = 0.08	 y(1,0,1) = 0.92	 
y(0,2,1) = 0.02	 y(2,0,1) = 0.98	 
y(0,3,1) = 0.00	 y(3,0,1) = 1.00	 
y(1,2,1) = 0.74	 y(2,1,1) = 0.26	 
y(1,3,1) = 0.03	 y(3,1,1) = 0.97	 
y(2,3,1) = 0.00	 y(3,2,1) = 1.00	 
y(0,1,2) = 0.13	 y(1,0,2) = 0.87	 
y(0,2,2) = -0.00	 y(2,0,2) = 1.00	 
y(0,3,2) = 0.56	 y(3,0,2) = 0.44	 
y(1,2,2) = 0.17	 y(2,1,2) = 0.83	 
y(1,3,2) = 1.00	 y(3,1,2) = 0.00	 
y(2,3,2) = 0.82	 y(3,2,2) = 0.18	 
y(0,1,3) = 0.03	 y(1,0,3) = 0.97	 
y(0,2,3) = 0.49	 y(2,0,3) = 0.51	 
y(0,3,3) = 0.06	 y(3,0,3) = 0.94	 
y(1,2,3) = 0.67	 y(2,1,3) = 0.33	 
y(1,3,3) = 0.36	 y(3,1,3) = 0.64	 
y(2,3,3) = 0.05	 y(3,2,3) = 0.95	 
0.9999999999999999 0.0 1
27.99999999999993 21.01631872135015 7
21.999999999999932 16.999999999999936 8
11.402028600189876 4.999999999999935 7
9.016318721350142 7.216658278575853 3
obj:  0.9999999999999999
erro
[(0, 1), (0, 0), (2, 1), (1, 0), (0, 2)]
cliques:  0 mip: 93
C:  34.999999999999936
x(0,0) = 1.00	 x(0,1) = 28.00	 x(0,2) = 19.00	 x(0,3) = 12.18	 
x(1,0) = 0.00	 x(1,1) = 10.09	 x(1,2) = 15.50	 x(1,3) = 3.08	 
x(2,0) = 23.44	 x(2,1) = 16.44	 x(2,2) = 13.24	 x(2,3) = 4.24	 
x(3,0) = 14.44	 x(3,1) = 0.91	 x(3,2) = 25.00	 x(3,3) = 9.18	 
y(0,1,0) = 0.00	 y(1,0,0) = 1.00	 
y(0,2,0) = 0.65	 y(2,0,0) = 0.35	 
y(0,3,0) = 1.00	 y(3,0,0) = 0.00	 
y(1,2,0) = 0.73	 y(2,1,0) = 0.27	 
y(1,3,0) = 1.00	 y(3,1,0) = 0.00	 
y(2,3,0) = 0.00	 y(3,2,0) = 1.00	 
y(0,1,1) = 0.26	 y(1,0,1) = 0.74	 
y(0,2,1) = 0.27	 y(2,0,1) = 0.73	 
y(0,3,1) = 0.00	 y(3,0,1) = 1.00	 
y(1,2,1) = 0.56	 y(2,1,1) = 0.44	 
y(1,3,1) = 0.09	 y(3,1,1) = 0.91	 
y(2,3,1) = 0.00	 y(3,2,1) = 1.00	 
y(0,1,2) = 0.57	 y(1,0,2) = 0.43	 
y(0,2,2) = 0.15	 y(2,0,2) = 0.85	 
y(0,3,2) = 1.00	 y(3,0,2) = -0.00	 
y(1,2,2) = 0.03	 y(2,1,2) = 0.97	 
y(1,3,2) = 1.00	 y(3,1,2) = 0.00	 
y(2,3,2) = 0.79	 y(3,2,2) = 0.21	 
y(0,1,3) = 0.00	 y(1,0,3) = 1.00	 
y(0,2,3) = 0.37	 y(2,0,3) = 0.63	 
y(0,3,3) = 0.00	 y(3,0,3) = 1.00	 
y(1,2,3) = 0.43	 y(2,1,3) = 0.57	 
y(1,3,3) = 0.96	 y(3,1,3) = 0.04	 
y(2,3,3) = 0.56	 y(3,2,3) = 0.44	 
0.9999999999999999 0.0 1
18.999999999999993 15.500000000000055 8
15.500000000000055 13.236518700455 3
12.17828556245942 4.236518700455002 9
obj:  0.9999999999999999
erro
[(1, 2), (3, 2), (0, 0), (1, 0), (0, 2)]
cliques:  0 mip: 0
iterações: 11 cortes cliques encontrados: 5 mip: 1065 objective:  34.999999999999936
Coin0506I Presolve 157 (-171) rows, 90 (-71) columns and 490 (-260) elements
Clp1000I sum of infeasibilities 1.79124e-08 - average 1.14092e-10, 0 fixed columns
Coin0506I Presolve 157 (0) rows, 90 (0) columns and 490 (0) elements
Clp0029I End of values pass after 90 iterations
Clp0000I Optimal - objective value 29
Clp0000I Optimal - objective value 29
Coin0511I After Postsolve, objective 29, infeasibilities - dual 0 (0), primal 0 (0)
Clp0000I Optimal - objective value 29
Clp0000I Optimal - objective value 29
Clp0000I Optimal - objective value 29
Coin0511I After Postsolve, objective 29, infeasibilities - dual 0 (0), primal 0 (0)
Clp0032I Optimal objective 29 - 0 iterations time 0.022, Presolve 0.00, Idiot 0.02
Coin3009W Conflict graph built in 0.000 seconds, density: 0.070%
